/*********************************************
 * OPL 12.6.0.0 Data
 * Author: Adrian Rodriguez Bazaga, Pau Rodriguez Esmerats
 * Creation Date: 30/11/2017 at 19:59:19
 *********************************************/

nNurses=1121;
maxConsec=2;
maxPresence=7;
maxHours=5;
minHours=1;
demand= [251 233 358 379 233 358 379 243 244 154 22 33 36 43 44 33 34 17 22 10 220 403 191 336  ];
